set Places := s b d ;
set Nodes := 0  1  2  3  4  5  7 ;
set Edges:= - - - - - - ;
set Trips := 0 1 2 3 4 5 6 7 8 9 10 11 12 13 14 15 16 17 18 19 20 21 22 23 24 25 26 27 ;

param Capacity := 6;
param len := 13;
